sing20220409.00
TTAA  59001 48698
99009 23817 30504 00114 23008 26506 92796 21417 30516
85527 17620 29018 70161 07600 28519 50587 06502 25008
40759 16724 18002 30969 31142 07012 25096 40923 11016
20244 53927 11519 15422 68738 10051 10659 78528 25019
88999
77999=
TTCC  5900/ 48698
88999
77999=
TTDD  5900/ 48698
11977 79139 22911 81523 33873 82334 44815 82528
21212 11960 23016 22912 23008 33888 20506 44843 24004 55838
26502 66826 01504 77815 03008=
